c This Formular is generated by mcnf
c
c    horn? no 
c    forced? no 
c    mixed sat? no 
c    clause length = 3 
c
p cnf 20  91 
 18 16 4 0
2 -16 4 0
-1 10 4 0
-16 -15 7 0
1 19 -6 0
18 -4 1 0
-5 -9 8 0
-9 19 6 0
11 -18 -7 0
6 -12 -19 0
-4 16 -7 0
5 11 18 0
13 3 -11 0
20 -4 18 0
-11 9 8 0
20 12 -6 0
-12 -14 16 0
19 -9 -17 0
8 17 -1 0
14 -15 7 0
14 -18 12 0
13 10 -1 0
-16 4 8 0
8 -16 3 0
19 -14 4 0
11 9 -19 0
-10 -2 -7 0
-10 -6 15 0
3 -6 -18 0
-15 -12 11 0
-20 7 15 0
15 19 -6 0
12 -18 -2 0
10 17 -5 0
-5 -17 10 0
-2 -14 13 0
20 7 19 0
1 19 -5 0
1 -15 6 0
6 -14 2 0
-2 -12 -19 0
%
0

7 35 44 90 2 64 72 25 76 100 46 34 27 15 23 43 39 16 83 100
